\ LP format - for model browsing. Use MPS format to capture full model detail.
Minimize
  0 v[0,1] + 0 v[0,2] + 0 v[0,3] + 0 v[0,4] + 0 v[0,5] + 0 v[0,6] + 0 v[0,7]
   + 0 v[0,8] + 0 v[0,9] + 0 v[0,10] + 0 vl[0,1] + 0 vl[0,2] + 0 vl[0,3]
   + 0 vl[0,4] + 0 vl[0,5] + 0 vl[0,6] + 0 vl[0,7] + 0 vl[0,8] + 0 vl[0,9]
   + 0 vl[0,10] + 0 d[0,1] + 0 d[0,2] + 0 d[0,3] + 0 d[0,4] + 0 d[0,5]
   + 0 d[0,6] + 0 d[0,7] + 0 d[0,8] + 0 d[0,9] + 0 d[0,10] + 0 a[0,1]
   + 0 a[0,2] + 0 a[0,3] + 0 a[0,4] + 0 a[0,5] + 0 a[0,6] + 0 a[0,7]
   + 0 a[0,8] + 0 a[0,9] + 0 a[0,10] + 0 vn[0,0] + 0 vn[0,1] + 0 vn[0,2]
   + 0 vn[0,3] + 0 vn[0,4] + 0 vn[0,5] + 0 vn[0,6] + 0 vn[0,7] + 0 vn[0,8]
   + 0 vn[0,9] + 0 vn[0,10] + 0 vln[0,0] + 0 vln[0,1] + 0 vln[0,2]
   + 0 vln[0,3] + 0 vln[0,4] + 0 vln[0,5] + 0 vln[0,6] + 0 vln[0,7]
   + 0 vln[0,8] + 0 vln[0,9] + 0 vln[0,10] + 0 b_a_1[0,0] + 0 b_a_1[0,1]
   + 0 b_a_1[0,2] + 0 b_a_1[0,3] + 0 b_a_1[0,4] + 0 b_a_1[0,5]
   + 0 b_a_1[0,6] + 0 b_a_1[0,7] + 0 b_a_1[0,8] + 0 b_a_1[0,9]
   + 0 b_a_1[0,10]
Subject To
 R0: b_a = 1
 R1: al[0,0] - 10000 b_a_2[0,0] >= -10004.9999
 R2: al[0,0] - 10000 b_a_2[0,0] <= -5
 R3: al[0,1] - 10000 b_a_2[0,1] >= -10004.9999
 R4: al[0,1] - 10000 b_a_2[0,1] <= -5
 R5: al[0,2] - 10000 b_a_2[0,2] >= -10004.9999
 R6: al[0,2] - 10000 b_a_2[0,2] <= -5
 R7: al[0,3] - 10000 b_a_2[0,3] >= -10004.9999
 R8: al[0,3] - 10000 b_a_2[0,3] <= -5
 R9: al[0,4] - 10000 b_a_2[0,4] >= -10004.9999
 R10: al[0,4] - 10000 b_a_2[0,4] <= -5
 R11: al[0,5] - 10000 b_a_2[0,5] >= -10004.9999
 R12: al[0,5] - 10000 b_a_2[0,5] <= -5
 R13: al[0,6] - 10000 b_a_2[0,6] >= -10004.9999
 R14: al[0,6] - 10000 b_a_2[0,6] <= -5
 R15: al[0,7] - 10000 b_a_2[0,7] >= -10004.9999
 R16: al[0,7] - 10000 b_a_2[0,7] <= -5
 R17: al[0,8] - 10000 b_a_2[0,8] >= -10004.9999
 R18: al[0,8] - 10000 b_a_2[0,8] <= -5
 R19: al[0,9] - 10000 b_a_2[0,9] >= -10004.9999
 R20: al[0,9] - 10000 b_a_2[0,9] <= -5
 R21: al[0,10] - 10000 b_a_2[0,10] >= -10004.9999
 R22: al[0,10] - 10000 b_a_2[0,10] <= -5
 R23: - al[0,0] - 10000 b_a_3[0,0] >= -10004.9999
 R24: - al[0,0] - 10000 b_a_3[0,0] <= -5
 R25: - al[0,1] - 10000 b_a_3[0,1] >= -10004.9999
 R26: - al[0,1] - 10000 b_a_3[0,1] <= -5
 R27: - al[0,2] - 10000 b_a_3[0,2] >= -10004.9999
 R28: - al[0,2] - 10000 b_a_3[0,2] <= -5
 R29: - al[0,3] - 10000 b_a_3[0,3] >= -10004.9999
 R30: - al[0,3] - 10000 b_a_3[0,3] <= -5
 R31: - al[0,4] - 10000 b_a_3[0,4] >= -10004.9999
 R32: - al[0,4] - 10000 b_a_3[0,4] <= -5
 R33: - al[0,5] - 10000 b_a_3[0,5] >= -10004.9999
 R34: - al[0,5] - 10000 b_a_3[0,5] <= -5
 R35: - al[0,6] - 10000 b_a_3[0,6] >= -10004.9999
 R36: - al[0,6] - 10000 b_a_3[0,6] <= -5
 R37: - al[0,7] - 10000 b_a_3[0,7] >= -10004.9999
 R38: - al[0,7] - 10000 b_a_3[0,7] <= -5
 R39: - al[0,8] - 10000 b_a_3[0,8] >= -10004.9999
 R40: - al[0,8] - 10000 b_a_3[0,8] <= -5
 R41: - al[0,9] - 10000 b_a_3[0,9] >= -10004.9999
 R42: - al[0,9] - 10000 b_a_3[0,9] <= -5
 R43: - al[0,10] - 10000 b_a_3[0,10] >= -10004.9999
 R44: - al[0,10] - 10000 b_a_3[0,10] <= -5
 R45: b_g = 1
 R46: d[0,0] - 10000 b_g_5[0,0] >= -10000
 R47: d[0,0] - 10000 b_g_5[0,0] <= -0.0001
 R48: - v[0,0] + vl[0,0] + d[0,0] - 10000 b_g_5[0,1] >= -10000
 R49: - v[0,0] + vl[0,0] + d[0,0] - 10000 b_g_5[0,1] <= -0.0001
 R50: - 2 v[0,0] + 2 vl[0,0] + d[0,0] - a[0,0] + al[0,1] - 10000 b_g_5[0,2]
   >= -10000
 R51: - 2 v[0,0] + 2 vl[0,0] + d[0,0] - a[0,0] + al[0,1] - 10000 b_g_5[0,2]
   <= -0.0001
 R52: - v[0,0] + vl[0,0] + d[0,0] - 2 a[0,0] + 2 al[0,1] + al[0,2]
   - 10000 b_g_5[0,3] >= -10000
 R53: - v[0,0] + vl[0,0] + d[0,0] - 2 a[0,0] + 2 al[0,1] + al[0,2]
   - 10000 b_g_5[0,3] <= -0.0001
 R54: 2 v[0,0] - 2 vl[0,0] + d[0,0] - a[0,0] + al[0,1] + 2 al[0,2]
   + al[0,3] - 10000 b_g_5[0,4] >= -10000
 R55: 2 v[0,0] - 2 vl[0,0] + d[0,0] - a[0,0] + al[0,1] + 2 al[0,2]
   + al[0,3] - 10000 b_g_5[0,4] <= -0.0001
 R56: 3 v[0,0] - 3 vl[0,0] + d[0,0] + 2 a[0,0] - 2 al[0,1] + al[0,2]
   + 2 al[0,3] + al[0,4] - 10000 b_g_5[0,5] >= -10000
 R57: 3 v[0,0] - 3 vl[0,0] + d[0,0] + 2 a[0,0] - 2 al[0,1] + al[0,2]
   + 2 al[0,3] + al[0,4] - 10000 b_g_5[0,5] <= -0.0001
 R58: - 2 v[0,0] + 2 vl[0,0] + d[0,0] + 3 a[0,0] - 3 al[0,1] - 2 al[0,2]
   + al[0,3] + 2 al[0,4] + al[0,5] - 10000 b_g_5[0,6] >= -10000
 R59: - 2 v[0,0] + 2 vl[0,0] + d[0,0] + 3 a[0,0] - 3 al[0,1] - 2 al[0,2]
   + al[0,3] + 2 al[0,4] + al[0,5] - 10000 b_g_5[0,6] <= -0.0001
 R60: - 9 v[0,0] + 9 vl[0,0] + d[0,0] - 2 a[0,0] + 2 al[0,1] - 3 al[0,2]
   - 2 al[0,3] + al[0,4] + 2 al[0,5] + al[0,6] - 10000 b_g_5[0,7]
   >= -10000
 R61: - 9 v[0,0] + 9 vl[0,0] + d[0,0] - 2 a[0,0] + 2 al[0,1] - 3 al[0,2]
   - 2 al[0,3] + al[0,4] + 2 al[0,5] + al[0,6] - 10000 b_g_5[0,7]
   <= -0.0001
 R62: - 6 v[0,0] + 6 vl[0,0] + d[0,0] - 9 a[0,0] + 9 al[0,1] + 2 al[0,2]
   - 3 al[0,3] - 2 al[0,4] + al[0,5] + 2 al[0,6] + al[0,7]
   - 10000 b_g_5[0,8] >= -10000
 R63: - 6 v[0,0] + 6 vl[0,0] + d[0,0] - 9 a[0,0] + 9 al[0,1] + 2 al[0,2]
   - 3 al[0,3] - 2 al[0,4] + al[0,5] + 2 al[0,6] + al[0,7]
   - 10000 b_g_5[0,8] <= -0.0001
 R64: 11 v[0,0] - 11 vl[0,0] + d[0,0] - 6 a[0,0] + 6 al[0,1] + 9 al[0,2]
   + 2 al[0,3] - 3 al[0,4] - 2 al[0,5] + al[0,6] + 2 al[0,7] + al[0,8]
   - 10000 b_g_5[0,9] >= -10000
 R65: 11 v[0,0] - 11 vl[0,0] + d[0,0] - 6 a[0,0] + 6 al[0,1] + 9 al[0,2]
   + 2 al[0,3] - 3 al[0,4] - 2 al[0,5] + al[0,6] + 2 al[0,7] + al[0,8]
   - 10000 b_g_5[0,9] <= -0.0001
 R66: 22 v[0,0] - 22 vl[0,0] + d[0,0] + 11 a[0,0] - 11 al[0,1] + 6 al[0,2]
   + 9 al[0,3] + 2 al[0,4] - 3 al[0,5] - 2 al[0,6] + al[0,7] + 2 al[0,8]
   + al[0,9] - 10000 b_g_5[0,10] >= -10000
 R67: 22 v[0,0] - 22 vl[0,0] + d[0,0] + 11 a[0,0] - 11 al[0,1] + 6 al[0,2]
   + 9 al[0,3] + 2 al[0,4] - 3 al[0,5] - 2 al[0,6] + al[0,7] + 2 al[0,8]
   + al[0,9] - 10000 b_g_5[0,10] <= -0.0001
 R68: b_6 = 1
 R69: - v[0,0] - 10000 b_6 >= -10000
 R70: - v[0,0] - 10000 b_6 <= -0.0001
 R71: v[0,0] - 10000 b_6 >= -10000
 R72: v[0,0] - 10000 b_6 <= -0.0001
 R73: b_7 = 1
 R74: 9 vl[0,0] - 10000 b_7 >= -10000
 R75: 9 vl[0,0] - 10000 b_7 <= -0.0001
 R76: - 9 vl[0,0] - 10000 b_7 >= -10000
 R77: - 9 vl[0,0] - 10000 b_7 <= -0.0001
 R78: b_8 = 1
 R79: 19 d[0,0] - 10000 b_8 >= -10000
 R80: 19 d[0,0] - 10000 b_8 <= -0.0001
 R81: - 19 d[0,0] - 10000 b_8 >= -10000
 R82: - 19 d[0,0] - 10000 b_8 <= -0.0001
 R83: b_9 = 1
 R84: - a[0,0] - 10000 b_9 >= -10000
 R85: - a[0,0] - 10000 b_9 <= -0.0001
 R86: a[0,0] - 10000 b_9 >= -10000
 R87: a[0,0] - 10000 b_9 <= -0.0001
Bounds
 -10000 <= v[0,0] <= 10000
 -10000 <= v[0,1] <= 10000
 -10000 <= v[0,2] <= 10000
 -10000 <= v[0,3] <= 10000
 -10000 <= v[0,4] <= 10000
 -10000 <= v[0,5] <= 10000
 -10000 <= v[0,6] <= 10000
 -10000 <= v[0,7] <= 10000
 -10000 <= v[0,8] <= 10000
 -10000 <= v[0,9] <= 10000
 -10000 <= v[0,10] <= 10000
 -10000 <= vl[0,0] <= 10000
 -10000 <= vl[0,1] <= 10000
 -10000 <= vl[0,2] <= 10000
 -10000 <= vl[0,3] <= 10000
 -10000 <= vl[0,4] <= 10000
 -10000 <= vl[0,5] <= 10000
 -10000 <= vl[0,6] <= 10000
 -10000 <= vl[0,7] <= 10000
 -10000 <= vl[0,8] <= 10000
 -10000 <= vl[0,9] <= 10000
 -10000 <= vl[0,10] <= 10000
 -10000 <= d[0,0] <= 10000
 -10000 <= d[0,1] <= 10000
 -10000 <= d[0,2] <= 10000
 -10000 <= d[0,3] <= 10000
 -10000 <= d[0,4] <= 10000
 -10000 <= d[0,5] <= 10000
 -10000 <= d[0,6] <= 10000
 -10000 <= d[0,7] <= 10000
 -10000 <= d[0,8] <= 10000
 -10000 <= d[0,9] <= 10000
 -10000 <= d[0,10] <= 10000
 -10000 <= a[0,0] <= 10000
 -10000 <= a[0,1] <= 10000
 -10000 <= a[0,2] <= 10000
 -10000 <= a[0,3] <= 10000
 -10000 <= a[0,4] <= 10000
 -10000 <= a[0,5] <= 10000
 -10000 <= a[0,6] <= 10000
 -10000 <= a[0,7] <= 10000
 -10000 <= a[0,8] <= 10000
 -10000 <= a[0,9] <= 10000
 -10000 <= a[0,10] <= 10000
 -10000 <= al[0,0] <= 10000
 -10000 <= al[0,1] <= 10000
 -10000 <= al[0,2] <= 10000
 -10000 <= al[0,3] <= 10000
 -10000 <= al[0,4] <= 10000
 -10000 <= al[0,5] <= 10000
 -10000 <= al[0,6] <= 10000
 -10000 <= al[0,7] <= 10000
 -10000 <= al[0,8] <= 10000
 -10000 <= al[0,9] <= 10000
 -10000 <= al[0,10] <= 10000
 -10000 <= vn[0,0] <= 10000
 -10000 <= vn[0,1] <= 10000
 -10000 <= vn[0,2] <= 10000
 -10000 <= vn[0,3] <= 10000
 -10000 <= vn[0,4] <= 10000
 -10000 <= vn[0,5] <= 10000
 -10000 <= vn[0,6] <= 10000
 -10000 <= vn[0,7] <= 10000
 -10000 <= vn[0,8] <= 10000
 -10000 <= vn[0,9] <= 10000
 -10000 <= vn[0,10] <= 10000
 -10000 <= vln[0,0] <= 10000
 -10000 <= vln[0,1] <= 10000
 -10000 <= vln[0,2] <= 10000
 -10000 <= vln[0,3] <= 10000
 -10000 <= vln[0,4] <= 10000
 -10000 <= vln[0,5] <= 10000
 -10000 <= vln[0,6] <= 10000
 -10000 <= vln[0,7] <= 10000
 -10000 <= vln[0,8] <= 10000
 -10000 <= vln[0,9] <= 10000
 -10000 <= vln[0,10] <= 10000
Binaries
 b_a b_a_1[0,0] b_a_1[0,1] b_a_1[0,2] b_a_1[0,3] b_a_1[0,4] b_a_1[0,5]
 b_a_1[0,6] b_a_1[0,7] b_a_1[0,8] b_a_1[0,9] b_a_1[0,10] b_a_2[0,0]
 b_a_2[0,1] b_a_2[0,2] b_a_2[0,3] b_a_2[0,4] b_a_2[0,5] b_a_2[0,6]
 b_a_2[0,7] b_a_2[0,8] b_a_2[0,9] b_a_2[0,10] b_a_3[0,0] b_a_3[0,1]
 b_a_3[0,2] b_a_3[0,3] b_a_3[0,4] b_a_3[0,5] b_a_3[0,6] b_a_3[0,7]
 b_a_3[0,8] b_a_3[0,9] b_a_3[0,10] b_g b_g_5[0,0] b_g_5[0,1] b_g_5[0,2]
 b_g_5[0,3] b_g_5[0,4] b_g_5[0,5] b_g_5[0,6] b_g_5[0,7] b_g_5[0,8]
 b_g_5[0,9] b_g_5[0,10] b_6 b_7 b_8 b_9
General Constraints
 GC0: b_a_1[0,0] = AND ( b_a_2[0,0] , b_a_3[0,0] )
 GC1: b_a_1[0,1] = AND ( b_a_2[0,1] , b_a_3[0,1] )
 GC2: b_a_1[0,2] = AND ( b_a_2[0,2] , b_a_3[0,2] )
 GC3: b_a_1[0,3] = AND ( b_a_2[0,3] , b_a_3[0,3] )
 GC4: b_a_1[0,4] = AND ( b_a_2[0,4] , b_a_3[0,4] )
 GC5: b_a_1[0,5] = AND ( b_a_2[0,5] , b_a_3[0,5] )
 GC6: b_a_1[0,6] = AND ( b_a_2[0,6] , b_a_3[0,6] )
 GC7: b_a_1[0,7] = AND ( b_a_2[0,7] , b_a_3[0,7] )
 GC8: b_a_1[0,8] = AND ( b_a_2[0,8] , b_a_3[0,8] )
 GC9: b_a_1[0,9] = AND ( b_a_2[0,9] , b_a_3[0,9] )
 GC10: b_a_1[0,10] = AND ( b_a_2[0,10] , b_a_3[0,10] )
 GC11: b_a = AND ( b_a_1[0,0] , b_a_1[0,1] , b_a_1[0,2] , b_a_1[0,3] ,
   b_a_1[0,4] , b_a_1[0,5] , b_a_1[0,6] , b_a_1[0,7] , b_a_1[0,8] ,
   b_a_1[0,9] , b_a_1[0,10] )
 GC12: b_g = AND ( b_g_5[0,0] , b_g_5[0,1] , b_g_5[0,2] , b_g_5[0,3] ,
   b_g_5[0,4] , b_g_5[0,5] , b_g_5[0,6] , b_g_5[0,7] , b_g_5[0,8] ,
   b_g_5[0,9] , b_g_5[0,10] )
End
